AES/1_3_4/ssaes_r1-20_c3_rw1_e4_f0_k1-20_aes_1base_box_aes_mc_bidirectional/ExperimentMinisat_r18_k14cnf_2011-10-29-153223/Result
WARNING: for repeatability, setting FPU to use double precision
============================[ Problem Statistics ]=============================
|                                                                             |
|  Number of variables:          1044                                         |
|  Number of clauses:            4584                                         |
|  Parse time:                   0.00 s                                       |
|  Eliminated clauses:           0.01 Mb                                      |
|  Simplification time:          0.00 s                                       |
|                                                                             |
=============================[ Search Statistics ]==============================
| Conflicts  |          ORIGINAL         |          LEARNT          | Progress |
|            |    Vars  Clauses Literals |    Limit  Clauses Lit/Cl |          |
================================================================================
|        100 |     720     3648    12000 |     1337      100     13 |  9.196 % |
|        250 |     720     3648    12000 |     1471      250     13 |  9.195 % |
|        475 |     720     3648    12000 |     1618      475     13 |  9.195 % |
|        812 |     720     3648    12000 |     1780      812     12 |  9.195 % |
|       1318 |     720     3648    12000 |     1958     1318     12 |  9.195 % |
|       2077 |     720     3648    12000 |     2154     1044     10 |  9.195 % |
===============================================================================
restarts              : 15
conflicts             : 2876           (13829 /sec)
decisions             : 3216           (0.00 % random) (15464 /sec)
propagations          : 1168367        (5618013 /sec)
conflict literals     : 33244          (47.42 % deleted)
Memory used           : 8.00 MB
CPU time              : 0.207968 s

SATISFIABLE
